LAMMPS (2 Apr 2025)
  using 4 OpenMP thread(s) per MPI task
Loaded 1 plugins from <LAMMPS install>/plugins
package omp 4
using multi-threaded neighbor list subroutines
# LAMMPS Stage 2: epsilon ramp with the backbone at full depth (protocol "hard_backbone")
#
# Pairs with a light atom ramp from 0.001 to 1 of their Lennard-Jones depth;
# backbone-backbone pairs (types 1 3) are at full depth
# from the first step. Capped under a Langevin thermostat: the historic ramp
# runs nve/limit alone and ended a small test network at 964 K.

units           real
atom_style      full
boundary        p p p
bond_style      harmonic
angle_style     harmonic
dihedral_style  harmonic
improper_style  cvff
pair_style      soft 3.0

read_data       system_after_soft.data
Reading data file ...
  orthogonal box = (0 0 0) to (67.553315 67.553315 67.553315)
  1 by 1 by 1 MPI processor grid
  reading atoms ...
  22052 atoms
  reading velocities ...
  22052 velocities
  scanning bonds ...
  4 = max bonds/atom
  scanning angles ...
  6 = max angles/atom
  scanning dihedrals ...
  30 = max dihedrals/atom
  orthogonal box = (0 0 0) to (67.553315 67.553315 67.553315)
  1 by 1 by 1 MPI processor grid
  reading bonds ...
  22146 bonds
  reading angles ...
  42115 angles
  reading dihedrals ...
  53376 dihedrals
Finding 1-2 1-3 1-4 neighbors ...
  special bond factors lj:    0        0        0       
  special bond factors coul:  0        0        0       
     4 = max # of 1-2 neighbors
    10 = max # of 1-3 neighbors
    22 = max # of 1-4 neighbors
    24 = max # of special neighbors
  special bonds CPU = 0.009 seconds
  read_data CPU = 0.516 seconds

neigh_modify    one 10000
comm_modify     mode single cutoff 12.0

group           bbdump type 1 3
4636 atoms in group bbdump
dump            bbdump bbdump custom 10 traj_stage2.lammpstrj id xu yu zu
dump_modify     bbdump sort id format float %.4f

pair_style      lj/cut/coul/long 10.0 10.0
kspace_style    pppm 1.0e-4
include         ../02_Chemistry/system.in.settings
# Forcefield Settings (Auto-Generated)

# Pair Coeffs
pair_coeff 1 1 0.3100 3.8041 # Si3
pair_coeff 2 2 0.0951 3.4730 # C_3
pair_coeff 3 3 0.0957 3.0332 # O_3
pair_coeff 4 4 0.0152 2.8464 # H_

# Bond Coeffs
bond_coeff 1 350.0000 1.6970 # C_3-Si3
bond_coeff 2 350.0000 1.5870 # O_3-Si3
bond_coeff 3 350.0000 1.0900 # C_3-H_

# Angle Coeffs
angle_coeff 1 50.0000 109.4710 # O_3-Si3-O_3
angle_coeff 2 50.0000 109.4710 # C_3-Si3-O_3
angle_coeff 3 50.0000 109.4710 # C_3-Si3-C_3
angle_coeff 4 50.0000 109.4710 # H_-C_3-Si3
angle_coeff 5 50.0000 109.4710 # H_-C_3-H_
angle_coeff 6 50.0000 104.5100 # Si3-O_3-Si3

# Dihedral Coeffs
dihedral_coeff 1 0.111111 -1 3 # C_3-Si3-C_3-H_
dihedral_coeff 2 0.111111 -1 3 # H_-C_3-Si3-O_3
dihedral_coeff 3 0.333333 -1 3 # C_3-Si3-O_3-Si3
dihedral_coeff 4 0.333333 -1 3 # O_3-Si3-O_3-Si3

special_bonds   lj/coul 0.0 0.0 1.0
Finding 1-2 1-3 1-4 neighbors ...
  special bond factors lj:    0        0        1       
  special bond factors coul:  0        0        1       
     4 = max # of 1-2 neighbors
    10 = max # of 1-3 neighbors
    24 = max # of special neighbors
  special bonds CPU = 0.005 seconds

variable        scale equal ramp(0.001,1.0)
fix             ramp all adapt 1 pair lj/cut/coul/long epsilon 1*2 2 v_scale pair lj/cut/coul/long epsilon 2 3*4 v_scale pair lj/cut/coul/long epsilon 1*4 4 v_scale scale yes reset no
fix             lang all langevin 300.0 300.0 100.0 7811
fix             cap all nve/limit 0.1
timestep        1.0
thermo          1000
# RUNTIME: 5000 steps
run             5000
PPPM initialization ...
  using 12-bit tables for long-range coulomb (src/kspace.cpp:342)
  G vector (1/distance) = 0.21326845
  grid = 20 20 20
  stencil order = 5
  estimated absolute RMS force accuracy = 0.025137588
  estimated relative force accuracy = 7.57011e-05
  using double precision FFTW3
  3d grid and FFT values/proc = 15625 8000
Generated 6 of 6 mixed pair_coeff terms from geometric mixing rule
Last active /omp style is kspace_style pppm/omp
Neighbor list info ...
  update: every = 1 steps, delay = 0 steps, check = yes
  max neighbors/atom: 10000, page size: 100000
  master list distance cutoff = 12
  ghost atom cutoff = 12
  binsize = 6, bins = 12 12 12
  1 neighbor lists, perpetual/occasional/extra = 1 0 0
  (1) pair lj/cut/coul/long/omp, perpetual
      attributes: half, newton on, omp
      pair build: half/bin/newton/omp
      stencil: half/bin/3d
      bin: standard
WARNING: Inconsistent image flags
For more information see https://docs.lammps.org/err0027 (src/domain.cpp:1052)
Per MPI rank memory allocation (min/avg/max) = 110.8 | 110.8 | 110.8 Mbytes
   Step          Temp          E_pair         E_mol          TotEng         Press     
         0   272.1833       1126570.3      21689.081      1166149.9      1056633.4    
      1000   304.19951     -53741.933      39008.098      5261.151       2580.6409    
      2000   300.12503     -55432.936      40642.448      4936.6831      2322.0342    
      3000   297.71555     -56992.154      41840.569      4417.2106      1952.3951    
      4000   298.73041     -58507.419      42685.632      3813.7168      1675.8064    
      5000   302.6877      -60212.74       43617.501      3300.3754      1007.6455    
Loop time of 123.169 on 4 procs for 5000 steps with 22052 atoms

Performance: 3.507 ns/day, 6.843 hours/ns, 40.594 timesteps/s, 895.190 katom-step/s
331.1% CPU use with 1 MPI tasks x 4 OpenMP threads

MPI task timing breakdown:
Section |  min time  |  avg time  |  max time  |%varavg| %total
---------------------------------------------------------------
Pair    | 89.911     | 89.911     | 89.911     |   0.0 | 73.00
Bond    | 5.9242     | 5.9242     | 5.9242     |   0.0 |  4.81
Kspace  | 12.712     | 12.712     | 12.712     |   0.0 | 10.32
Neigh   | 6.1818     | 6.1818     | 6.1818     |   0.0 |  5.02
Comm    | 0.66983    | 0.66983    | 0.66983    |   0.0 |  0.54
Output  | 2.6381     | 2.6381     | 2.6381     |   0.0 |  2.14
Modify  | 4.8762     | 4.8762     | 4.8762     |   0.0 |  3.96
Other   |            | 0.2557     |            |       |  0.21

Nlocal:          22052 ave       22052 max       22052 min
Histogram: 1 0 0 0 0 0 0 0 0 0
Nghost:          32037 ave       32037 max       32037 min
Histogram: 1 0 0 0 0 0 0 0 0 0
Neighs:    5.77256e+06 ave 5.77256e+06 max 5.77256e+06 min
Histogram: 1 0 0 0 0 0 0 0 0 0

Total # of neighbors = 5772563
Ave neighs/atom = 261.7705
Ave special neighs/atom = 5.8281335
Neighbor list builds = 200
Dangerous builds = 0
unfix           cap
unfix           lang
unfix           ramp
undump          bbdump
write_data      system_ramped.data
System init for write_data ...
PPPM initialization ...
  using 12-bit tables for long-range coulomb (src/kspace.cpp:342)
  G vector (1/distance) = 0.21326845
  grid = 20 20 20
  stencil order = 5
  estimated absolute RMS force accuracy = 0.025137588
  estimated relative force accuracy = 7.57011e-05
  using double precision FFTW3
  3d grid and FFT values/proc = 15625 8000
Generated 6 of 6 mixed pair_coeff terms from geometric mixing rule
Last active /omp style is kspace_style pppm/omp
Total wall time: 0:02:03
