LAMMPS (2 Apr 2025)
  using 8 OpenMP thread(s) per MPI task
Loaded 1 plugins from <LAMMPS install>/plugins
package omp 8
using multi-threaded neighbor list subroutines
# LAMMPS Stage 3: Parallel Equilibration
# METHODOLOGY: Set 1 (Tight Min -> NVT -> NPT)

units           real
atom_style      full
boundary        p p p
bond_style      harmonic
angle_style     harmonic
dihedral_style  harmonic
improper_style  umbrella
pair_style      lj/cut/coul/long 10.0 10.0

# --- 1. Load Ramped State ---
read_data       system_ramped.data
Reading data file ...
  orthogonal box = (0 0 0) to (67.553315 67.553315 67.553315)
  1 by 1 by 1 MPI processor grid
  reading atoms ...
  22052 atoms
  reading velocities ...
  22052 velocities
  scanning bonds ...
  4 = max bonds/atom
  scanning angles ...
  6 = max angles/atom
  scanning dihedrals ...
  30 = max dihedrals/atom
  orthogonal box = (0 0 0) to (67.553315 67.553315 67.553315)
  1 by 1 by 1 MPI processor grid
  reading bonds ...
  22146 bonds
  reading angles ...
  42115 angles
  reading dihedrals ...
  53376 dihedrals
Finding 1-2 1-3 1-4 neighbors ...
  special bond factors lj:    0        0        0       
  special bond factors coul:  0        0        0       
     4 = max # of 1-2 neighbors
    10 = max # of 1-3 neighbors
    22 = max # of 1-4 neighbors
    24 = max # of special neighbors
  special bonds CPU = 0.011 seconds
  read_data CPU = 0.589 seconds

# --- 2. Safety Settings ---
# Keep these even in stage 3 to prevent random crashes
neigh_modify    one 10000

group           bbdump type 1 3
4636 atoms in group bbdump
dump            bbdump bbdump custom 10 traj_stage3.lammpstrj id xu yu zu
dump_modify     bbdump sort id format float %.4f

# --- 3. Define Potential ---
pair_style      lj/cut/coul/long 10.0 10.0
kspace_style    pppm 1.0e-4
include         ../02_Chemistry/system.in.settings
# Forcefield Settings (Auto-Generated)

# Pair Coeffs
pair_coeff 1 1 0.3100 3.8041 # Si3
pair_coeff 2 2 0.0951 3.4730 # C_3
pair_coeff 3 3 0.0957 3.0332 # O_3
pair_coeff 4 4 0.0152 2.8464 # H_
pair_modify mix geometric tail yes

# Bond Coeffs
bond_coeff 1 350.0000 1.6970 # C_3-Si3
bond_coeff 2 350.0000 1.5870 # O_3-Si3
bond_coeff 3 350.0000 1.0900 # C_3-H_

# Angle Coeffs
angle_coeff 1 50.0000 109.4710 # O_3-Si3-O_3
angle_coeff 2 50.0000 109.4710 # C_3-Si3-O_3
angle_coeff 3 50.0000 109.4710 # C_3-Si3-C_3
angle_coeff 4 50.0000 109.4710 # H_-C_3-Si3
angle_coeff 5 50.0000 109.4710 # H_-C_3-H_
angle_coeff 6 50.0000 104.5100 # Si3-O_3-Si3

# Dihedral Coeffs
dihedral_coeff 1 0.111111 1 3 # C_3-Si3-C_3-H_
dihedral_coeff 2 0.111111 1 3 # H_-C_3-Si3-O_3
dihedral_coeff 3 0.333333 1 3 # C_3-Si3-O_3-Si3
dihedral_coeff 4 0.333333 1 3 # O_3-Si3-O_3-Si3

special_bonds   lj/coul 0.0 0.0 1.0
Finding 1-2 1-3 1-4 neighbors ...
  special bond factors lj:    0        0        1       
  special bond factors coul:  0        0        1       
     4 = max # of 1-2 neighbors
    10 = max # of 1-3 neighbors
    24 = max # of special neighbors
  special bonds CPU = 0.006 seconds

# --- 4. Minimization, capped (hard-backbone deck) ---
min_style       cg
minimize        1.0e-6 1.0e-8 1000 10000
PPPM initialization ...
  using 12-bit tables for long-range coulomb (src/kspace.cpp:342)
  G vector (1/distance) = 0.21326845
  grid = 20 20 20
  stencil order = 5
  estimated absolute RMS force accuracy = 0.025137588
  estimated relative force accuracy = 7.57011e-05
  using double precision FFTW3
  3d grid and FFT values/proc = 15625 8000
Generated 6 of 6 mixed pair_coeff terms from geometric mixing rule
Last active /omp style is kspace_style pppm/omp
Neighbor list info ...
  update: every = 1 steps, delay = 0 steps, check = yes
  max neighbors/atom: 10000, page size: 100000
  master list distance cutoff = 12
  ghost atom cutoff = 12
  binsize = 6, bins = 12 12 12
  1 neighbor lists, perpetual/occasional/extra = 1 0 0
  (1) pair lj/cut/coul/long/omp, perpetual
      attributes: half, newton on, omp
      pair build: half/bin/newton/omp
      stencil: half/bin/3d
      bin: standard
WARNING: Inconsistent image flags
For more information see https://docs.lammps.org/err0027 (src/domain.cpp:1052)
Per MPI rank memory allocation (min/avg/max) = 124.5 | 124.5 | 124.5 Mbytes
   Step          Temp          E_pair         E_mol          TotEng         Press     
         0   301.86029     -61832.088      39205.212     -2785.6465      3002.0035    
      1000   301.86029     -65439.367      19661.531     -25936.606      2583.6398    
Loop time of 49.3021 on 8 procs for 1000 steps with 22052 atoms

521.2% CPU use with 1 MPI tasks x 8 OpenMP threads

Minimization stats:
  Stopping criterion = max iterations
  Energy initial, next-to-last, final = 
     -22626.8758434741  -45776.6937159668   -45777.835417031
  Force two-norm initial, final = 5244.0013 33.38971
  Force max component initial, final = 126.27337 8.6359644
  Final line search alpha, max atom move = 0.0032149534 0.027764223
  Iterations, force evaluations = 1000 2000

MPI task timing breakdown:
Section |  min time  |  avg time  |  max time  |%varavg| %total
---------------------------------------------------------------
Pair    | 35.345     | 35.345     | 35.345     |   0.0 | 71.69
Bond    | 3.4983     | 3.4983     | 3.4983     |   0.0 |  7.10
Kspace  | 7.1881     | 7.1881     | 7.1881     |   0.0 | 14.58
Neigh   | 1.0243     | 1.0243     | 1.0243     |   0.0 |  2.08
Comm    | 0.37492    | 0.37492    | 0.37492    |   0.0 |  0.76
Output  | 0.69395    | 0.69395    | 0.69395    |   0.0 |  1.41
Modify  | 0.439      | 0.439      | 0.439      |   0.0 |  0.89
Other   |            | 0.7388     |            |       |  1.50

Nlocal:          22052 ave       22052 max       22052 min
Histogram: 1 0 0 0 0 0 0 0 0 0
Nghost:          32382 ave       32382 max       32382 min
Histogram: 1 0 0 0 0 0 0 0 0 0
Neighs:    5.79569e+06 ave 5.79569e+06 max 5.79569e+06 min
Histogram: 1 0 0 0 0 0 0 0 0 0

Total # of neighbors = 5795687
Ave neighs/atom = 262.81911
Ave special neighs/atom = 5.8281335
Neighbor list builds = 36
Dangerous builds = 0

write_data      system_minimized_final.data
System init for write_data ...
PPPM initialization ...
  using 12-bit tables for long-range coulomb (src/kspace.cpp:342)
  G vector (1/distance) = 0.21326845
  grid = 20 20 20
  stencil order = 5
  estimated absolute RMS force accuracy = 0.025137588
  estimated relative force accuracy = 7.57011e-05
  using double precision FFTW3
  3d grid and FFT values/proc = 15625 8000
Generated 6 of 6 mixed pair_coeff terms from geometric mixing rule
Last active /omp style is kspace_style pppm/omp

# --- 5. Equilibration Loop (Set 1 Logic) ---
undump          bbdump
reset_timestep  0
dump            bbdump bbdump custom 10 traj_stage3.lammpstrj id xu yu zu
dump_modify     bbdump sort id format float %.4f append yes

variable        temp equal 300
velocity        all create ${temp} 12345
velocity        all create 300 12345

# NVT (1000 steps)
fix             1 all nvt temp ${temp} ${temp} 100.0
fix             1 all nvt temp 300 ${temp} 100.0
fix             1 all nvt temp 300 300 100.0
run             1000
PPPM initialization ...
  using 12-bit tables for long-range coulomb (src/kspace.cpp:342)
  G vector (1/distance) = 0.21326845
  grid = 20 20 20
  stencil order = 5
  estimated absolute RMS force accuracy = 0.025137588
  estimated relative force accuracy = 7.57011e-05
  using double precision FFTW3
  3d grid and FFT values/proc = 15625 8000
Generated 6 of 6 mixed pair_coeff terms from geometric mixing rule
Last active /omp style is kspace_style pppm/omp
WARNING: Inconsistent image flags
For more information see https://docs.lammps.org/err0027 (src/domain.cpp:1052)
Per MPI rank memory allocation (min/avg/max) = 120.4 | 120.4 | 120.4 Mbytes
   Step          Temp          E_pair         E_mol          TotEng         Press     
         0   300           -65439.367      19661.531     -26058.883      2565.5082    
      1000   300.98722     -63393.96       37837.029     -5773.0886      627.58932    
Loop time of 17.529 on 8 procs for 1000 steps with 22052 atoms

Performance: 4.929 ns/day, 4.869 hours/ns, 57.048 timesteps/s, 1.258 Matom-step/s
519.9% CPU use with 1 MPI tasks x 8 OpenMP threads

MPI task timing breakdown:
Section |  min time  |  avg time  |  max time  |%varavg| %total
---------------------------------------------------------------
Pair    | 10.508     | 10.508     | 10.508     |   0.0 | 59.95
Bond    | 1.1505     | 1.1505     | 1.1505     |   0.0 |  6.56
Kspace  | 3.363      | 3.363      | 3.363      |   0.0 | 19.19
Neigh   | 0.80917    | 0.80917    | 0.80917    |   0.0 |  4.62
Comm    | 0.18481    | 0.18481    | 0.18481    |   0.0 |  1.05
Output  | 0.70663    | 0.70663    | 0.70663    |   0.0 |  4.03
Modify  | 0.72755    | 0.72755    | 0.72755    |   0.0 |  4.15
Other   |            | 0.07948    |            |       |  0.45

Nlocal:          22052 ave       22052 max       22052 min
Histogram: 1 0 0 0 0 0 0 0 0 0
Nghost:          32471 ave       32471 max       32471 min
Histogram: 1 0 0 0 0 0 0 0 0 0
Neighs:       5.78e+06 ave    5.78e+06 max    5.78e+06 min
Histogram: 1 0 0 0 0 0 0 0 0 0

Total # of neighbors = 5780001
Ave neighs/atom = 262.10779
Ave special neighs/atom = 5.8281335
Neighbor list builds = 30
Dangerous builds = 0
unfix           1
write_data      after_nvt_real.data
System init for write_data ...
PPPM initialization ...
  using 12-bit tables for long-range coulomb (src/kspace.cpp:342)
  G vector (1/distance) = 0.21326845
  grid = 20 20 20
  stencil order = 5
  estimated absolute RMS force accuracy = 0.025137588
  estimated relative force accuracy = 7.57011e-05
  using double precision FFTW3
  3d grid and FFT values/proc = 15625 8000
Generated 6 of 6 mixed pair_coeff terms from geometric mixing rule
Last active /omp style is kspace_style pppm/omp

# NPT (1000 steps)
fix             1 all npt temp ${temp} ${temp} 100.0 iso 1.0 1.0 1000.0
fix             1 all npt temp 300 ${temp} 100.0 iso 1.0 1.0 1000.0
fix             1 all npt temp 300 300 100.0 iso 1.0 1.0 1000.0
run             1000
PPPM initialization ...
  using 12-bit tables for long-range coulomb (src/kspace.cpp:342)
  G vector (1/distance) = 0.21326845
  grid = 20 20 20
  stencil order = 5
  estimated absolute RMS force accuracy = 0.025137588
  estimated relative force accuracy = 7.57011e-05
  using double precision FFTW3
  3d grid and FFT values/proc = 15625 8000
Generated 6 of 6 mixed pair_coeff terms from geometric mixing rule
Last active /omp style is kspace_style pppm/omp
WARNING: Inconsistent image flags
For more information see https://docs.lammps.org/err0027 (src/domain.cpp:1052)
Per MPI rank memory allocation (min/avg/max) = 122.7 | 122.7 | 122.7 Mbytes
   Step          Temp          E_pair         E_mol          TotEng         Press          Volume    
      1000   300.98722     -63393.96       37837.029     -5773.0886      627.58932      308276.2     
      2000   300.8744      -63637.032      37331.08      -6529.5258     -760.72621      314682.83    
Loop time of 19.9928 on 8 procs for 1000 steps with 22052 atoms

Performance: 4.322 ns/day, 5.554 hours/ns, 50.018 timesteps/s, 1.103 Matom-step/s
484.8% CPU use with 1 MPI tasks x 8 OpenMP threads

MPI task timing breakdown:
Section |  min time  |  avg time  |  max time  |%varavg| %total
---------------------------------------------------------------
Pair    | 10.726     | 10.726     | 10.726     |   0.0 | 53.65
Bond    | 1.6588     | 1.6588     | 1.6588     |   0.0 |  8.30
Kspace  | 3.4278     | 3.4278     | 3.4278     |   0.0 | 17.15
Neigh   | 1.0162     | 1.0162     | 1.0162     |   0.0 |  5.08
Comm    | 0.1731     | 0.1731     | 0.1731     |   0.0 |  0.87
Output  | 0.69695    | 0.69695    | 0.69695    |   0.0 |  3.49
Modify  | 2.2256     | 2.2256     | 2.2256     |   0.0 | 11.13
Other   |            | 0.06864    |            |       |  0.34

Nlocal:          22052 ave       22052 max       22052 min
Histogram: 1 0 0 0 0 0 0 0 0 0
Nghost:          32389 ave       32389 max       32389 min
Histogram: 1 0 0 0 0 0 0 0 0 0
Neighs:    5.65327e+06 ave 5.65327e+06 max 5.65327e+06 min
Histogram: 1 0 0 0 0 0 0 0 0 0

Total # of neighbors = 5653267
Ave neighs/atom = 256.36074
Ave special neighs/atom = 5.8281335
Neighbor list builds = 38
Dangerous builds = 0
unfix           1

undump          bbdump
write_data      system_equilibrated.data
System init for write_data ...
PPPM initialization ...
  using 12-bit tables for long-range coulomb (src/kspace.cpp:342)
  G vector (1/distance) = 0.21261702
  grid = 20 20 20
  stencil order = 5
  estimated absolute RMS force accuracy = 0.025581432
  estimated relative force accuracy = 7.7037722e-05
  using double precision FFTW3
  3d grid and FFT values/proc = 15625 8000
Generated 6 of 6 mixed pair_coeff terms from geometric mixing rule
Last active /omp style is kspace_style pppm/omp
print "All Minimization Stages Complete."
All Minimization Stages Complete.
Total wall time: 0:01:27
