LAMMPS (2 Apr 2025)
  using 8 OpenMP thread(s) per MPI task
Loaded 1 plugins from <LAMMPS install>/plugins
package omp 8
using multi-threaded neighbor list subroutines
# LAMMPS Stage 2: epsilon ramp with the backbone at full depth (protocol "hard_backbone")
#
# Pairs with a light atom ramp from 0.001 to 1 of their Lennard-Jones depth;
# backbone-backbone pairs (types 1 3) are at full depth
# from the first step. Capped under a Langevin thermostat: the historic ramp
# runs nve/limit alone and ended a small test network at 964 K.

units           real
atom_style      full
boundary        p p p
bond_style      harmonic
angle_style     harmonic
dihedral_style  harmonic
improper_style  umbrella
pair_style      soft 3.0

read_data       system_after_soft.data
Reading data file ...
  orthogonal box = (0 0 0) to (54.05034 54.05034 54.05034)
  1 by 1 by 1 MPI processor grid
  reading atoms ...
  11087 atoms
  reading velocities ...
  11087 velocities
  scanning bonds ...
  4 = max bonds/atom
  scanning angles ...
  6 = max angles/atom
  scanning dihedrals ...
  30 = max dihedrals/atom
  orthogonal box = (0 0 0) to (54.05034 54.05034 54.05034)
  1 by 1 by 1 MPI processor grid
  reading bonds ...
  11176 bonds
  reading angles ...
  21270 angles
  reading dihedrals ...
  27036 dihedrals
Finding 1-2 1-3 1-4 neighbors ...
  special bond factors lj:    0        0        0       
  special bond factors coul:  0        0        0       
     4 = max # of 1-2 neighbors
    10 = max # of 1-3 neighbors
    22 = max # of 1-4 neighbors
    24 = max # of special neighbors
  special bonds CPU = 0.006 seconds
  read_data CPU = 0.323 seconds

neigh_modify    one 10000
comm_modify     mode single cutoff 12.0

group           bbdump type 1 3
2431 atoms in group bbdump
dump            bbdump bbdump custom 10 traj_stage2.lammpstrj id xu yu zu
dump_modify     bbdump sort id format float %.4f

pair_style      lj/cut/coul/long 10.0 10.0
kspace_style    pppm 1.0e-4
include         ../02_Chemistry/system.in.settings
# Forcefield Settings (Auto-Generated)

# Pair Coeffs
pair_coeff 1 1 0.3100 3.8041 # Si3
pair_coeff 2 2 0.0951 3.4730 # C_3
pair_coeff 3 3 0.0957 3.0332 # O_3
pair_coeff 4 4 0.0152 2.8464 # H_
pair_modify mix geometric tail yes

# Bond Coeffs
bond_coeff 1 350.0000 1.6970 # C_3-Si3
bond_coeff 2 350.0000 1.5870 # O_3-Si3
bond_coeff 3 350.0000 1.0900 # C_3-H_

# Angle Coeffs
angle_coeff 1 50.0000 109.4710 # O_3-Si3-O_3
angle_coeff 2 50.0000 109.4710 # C_3-Si3-O_3
angle_coeff 3 50.0000 109.4710 # C_3-Si3-C_3
angle_coeff 4 50.0000 109.4710 # H_-C_3-Si3
angle_coeff 5 50.0000 109.4710 # H_-C_3-H_
angle_coeff 6 50.0000 104.5100 # Si3-O_3-Si3

# Dihedral Coeffs
dihedral_coeff 1 0.111111 1 3 # C_3-Si3-C_3-H_
dihedral_coeff 2 0.111111 1 3 # H_-C_3-Si3-O_3
dihedral_coeff 3 0.333333 1 3 # C_3-Si3-O_3-Si3
dihedral_coeff 4 0.333333 1 3 # O_3-Si3-O_3-Si3

special_bonds   lj/coul 0.0 0.0 1.0
Finding 1-2 1-3 1-4 neighbors ...
  special bond factors lj:    0        0        1       
  special bond factors coul:  0        0        1       
     4 = max # of 1-2 neighbors
    10 = max # of 1-3 neighbors
    24 = max # of special neighbors
  special bonds CPU = 0.003 seconds

variable        scale equal ramp(0.001,1.0)
fix             ramp all adapt 1 pair lj/cut/coul/long epsilon 1*2 2 v_scale pair lj/cut/coul/long epsilon 2 3*4 v_scale pair lj/cut/coul/long epsilon 1*4 4 v_scale scale yes reset no
fix             lang all langevin 300.0 300.0 100.0 7811
fix             cap all nve/limit 0.1
timestep        1.0
thermo          1000
# RUNTIME: 2500 steps
run             2500
PPPM initialization ...
  using 12-bit tables for long-range coulomb (src/kspace.cpp:342)
  G vector (1/distance) = 0.20709874
  grid = 15 15 15
  stencil order = 5
  estimated absolute RMS force accuracy = 0.034470093
  estimated relative force accuracy = 0.00010380566
  using double precision FFTW3
  3d grid and FFT values/proc = 8000 3375
Generated 6 of 6 mixed pair_coeff terms from geometric mixing rule
Last active /omp style is kspace_style pppm/omp
Neighbor list info ...
  update: every = 1 steps, delay = 0 steps, check = yes
  max neighbors/atom: 10000, page size: 100000
  master list distance cutoff = 12
  ghost atom cutoff = 12
  binsize = 6, bins = 10 10 10
  1 neighbor lists, perpetual/occasional/extra = 1 0 0
  (1) pair lj/cut/coul/long/omp, perpetual
      attributes: half, newton on, omp
      pair build: half/bin/newton/omp
      stencil: half/bin/3d
      bin: standard
WARNING: Inconsistent image flags
For more information see https://docs.lammps.org/err0027 (src/domain.cpp:1052)
Per MPI rank memory allocation (min/avg/max) = 82.61 | 82.61 | 82.61 Mbytes
   Step          Temp          E_pair         E_mol          TotEng         Press     
         0   275.52145      1335054        10700.165      1354858.8      2381625.8    
      1000   304.89241     -32018.646      18812.128     -3131.2696      2553.5316    
      2000   301.52118     -33709.411      19237.891     -4507.6741      2370.1854    
      2500   304.50255     -34521.562      19546.471     -4912.7245      1779.396     
Loop time of 40.0049 on 8 procs for 2500 steps with 11087 atoms

Performance: 5.399 ns/day, 4.445 hours/ns, 62.492 timesteps/s, 692.853 katom-step/s
501.9% CPU use with 1 MPI tasks x 8 OpenMP threads

MPI task timing breakdown:
Section |  min time  |  avg time  |  max time  |%varavg| %total
---------------------------------------------------------------
Pair    | 23.369     | 23.369     | 23.369     |   0.0 | 58.41
Bond    | 3.5297     | 3.5297     | 3.5297     |   0.0 |  8.82
Kspace  | 6.6508     | 6.6508     | 6.6508     |   0.0 | 16.63
Neigh   | 1.5091     | 1.5091     | 1.5091     |   0.0 |  3.77
Comm    | 0.38752    | 0.38752    | 0.38752    |   0.0 |  0.97
Output  | 1.1299     | 1.1299     | 1.1299     |   0.0 |  2.82
Modify  | 3.3153     | 3.3153     | 3.3153     |   0.0 |  8.29
Other   |            | 0.1138     |            |       |  0.28

Nlocal:          11087 ave       11087 max       11087 min
Histogram: 1 0 0 0 0 0 0 0 0 0
Nghost:          23240 ave       23240 max       23240 min
Histogram: 1 0 0 0 0 0 0 0 0 0
Neighs:    2.82683e+06 ave 2.82683e+06 max 2.82683e+06 min
Histogram: 1 0 0 0 0 0 0 0 0 0

Total # of neighbors = 2826827
Ave neighs/atom = 254.96771
Ave special neighs/atom = 5.852981
Neighbor list builds = 102
Dangerous builds = 0
unfix           cap
unfix           lang
unfix           ramp
undump          bbdump
write_data      system_ramped.data
System init for write_data ...
PPPM initialization ...
  using 12-bit tables for long-range coulomb (src/kspace.cpp:342)
  G vector (1/distance) = 0.20709874
  grid = 15 15 15
  stencil order = 5
  estimated absolute RMS force accuracy = 0.034470093
  estimated relative force accuracy = 0.00010380566
  using double precision FFTW3
  3d grid and FFT values/proc = 8000 3375
Generated 6 of 6 mixed pair_coeff terms from geometric mixing rule
Last active /omp style is kspace_style pppm/omp
Total wall time: 0:00:40
