LAMMPS (2 Apr 2025)
  using 8 OpenMP thread(s) per MPI task
Loaded 1 plugins from <LAMMPS install>/plugins
package omp 8
using multi-threaded neighbor list subroutines
# LAMMPS Stage 3: Parallel Equilibration
# METHODOLOGY: Set 1 (Tight Min -> NVT -> NPT)

units           real
atom_style      full
boundary        p p p
bond_style      harmonic
angle_style     harmonic
dihedral_style  harmonic
improper_style  umbrella
pair_style      lj/cut/coul/long 10.0 10.0

# --- 1. Load Ramped State ---
read_data       system_ramped.data
Reading data file ...
  orthogonal box = (0 0 0) to (54.05034 54.05034 54.05034)
  1 by 1 by 1 MPI processor grid
  reading atoms ...
  11087 atoms
  reading velocities ...
  11087 velocities
  scanning bonds ...
  4 = max bonds/atom
  scanning angles ...
  6 = max angles/atom
  scanning dihedrals ...
  30 = max dihedrals/atom
  orthogonal box = (0 0 0) to (54.05034 54.05034 54.05034)
  1 by 1 by 1 MPI processor grid
  reading bonds ...
  11176 bonds
  reading angles ...
  21270 angles
  reading dihedrals ...
  27036 dihedrals
Finding 1-2 1-3 1-4 neighbors ...
  special bond factors lj:    0        0        0       
  special bond factors coul:  0        0        0       
     4 = max # of 1-2 neighbors
    10 = max # of 1-3 neighbors
    22 = max # of 1-4 neighbors
    24 = max # of special neighbors
  special bonds CPU = 0.006 seconds
  read_data CPU = 0.316 seconds

# --- 2. Safety Settings ---
# Keep these even in stage 3 to prevent random crashes
neigh_modify    one 10000

group           bbdump type 1 3
2431 atoms in group bbdump
dump            bbdump bbdump custom 10 traj_stage3.lammpstrj id xu yu zu
dump_modify     bbdump sort id format float %.4f

# --- 3. Define Potential ---
pair_style      lj/cut/coul/long 10.0 10.0
kspace_style    pppm 1.0e-4
include         ../02_Chemistry/system.in.settings
# Forcefield Settings (Auto-Generated)

# Pair Coeffs
pair_coeff 1 1 0.3100 3.8041 # Si3
pair_coeff 2 2 0.0951 3.4730 # C_3
pair_coeff 3 3 0.0957 3.0332 # O_3
pair_coeff 4 4 0.0152 2.8464 # H_
pair_modify mix geometric tail yes

# Bond Coeffs
bond_coeff 1 350.0000 1.6970 # C_3-Si3
bond_coeff 2 350.0000 1.5870 # O_3-Si3
bond_coeff 3 350.0000 1.0900 # C_3-H_

# Angle Coeffs
angle_coeff 1 50.0000 109.4710 # O_3-Si3-O_3
angle_coeff 2 50.0000 109.4710 # C_3-Si3-O_3
angle_coeff 3 50.0000 109.4710 # C_3-Si3-C_3
angle_coeff 4 50.0000 109.4710 # H_-C_3-Si3
angle_coeff 5 50.0000 109.4710 # H_-C_3-H_
angle_coeff 6 50.0000 104.5100 # Si3-O_3-Si3

# Dihedral Coeffs
dihedral_coeff 1 0.111111 1 3 # C_3-Si3-C_3-H_
dihedral_coeff 2 0.111111 1 3 # H_-C_3-Si3-O_3
dihedral_coeff 3 0.333333 1 3 # C_3-Si3-O_3-Si3
dihedral_coeff 4 0.333333 1 3 # O_3-Si3-O_3-Si3

special_bonds   lj/coul 0.0 0.0 1.0
Finding 1-2 1-3 1-4 neighbors ...
  special bond factors lj:    0        0        1       
  special bond factors coul:  0        0        1       
     4 = max # of 1-2 neighbors
    10 = max # of 1-3 neighbors
    24 = max # of special neighbors
  special bonds CPU = 0.003 seconds

# --- 4. Minimization, capped (hard-backbone deck) ---
min_style       cg
minimize        1.0e-6 1.0e-8 1000 10000
PPPM initialization ...
  using 12-bit tables for long-range coulomb (src/kspace.cpp:342)
  G vector (1/distance) = 0.20709874
  grid = 15 15 15
  stencil order = 5
  estimated absolute RMS force accuracy = 0.034470093
  estimated relative force accuracy = 0.00010380566
  using double precision FFTW3
  3d grid and FFT values/proc = 8000 3375
Generated 6 of 6 mixed pair_coeff terms from geometric mixing rule
Last active /omp style is kspace_style pppm/omp
Neighbor list info ...
  update: every = 1 steps, delay = 0 steps, check = yes
  max neighbors/atom: 10000, page size: 100000
  master list distance cutoff = 12
  ghost atom cutoff = 12
  binsize = 6, bins = 10 10 10
  1 neighbor lists, perpetual/occasional/extra = 1 0 0
  (1) pair lj/cut/coul/long/omp, perpetual
      attributes: half, newton on, omp
      pair build: half/bin/newton/omp
      stencil: half/bin/3d
      bin: standard
WARNING: Inconsistent image flags
For more information see https://docs.lammps.org/err0027 (src/domain.cpp:1052)
Per MPI rank memory allocation (min/avg/max) = 85.96 | 85.96 | 85.96 Mbytes
   Step          Temp          E_pair         E_mol          TotEng         Press     
         0   304.50255     -34521.562      19546.471     -4912.7245      1779.396     
      1000   304.50255     -36110.852      9733.2778     -16315.208      2510.28      
Loop time of 28.8648 on 8 procs for 1000 steps with 11087 atoms

524.4% CPU use with 1 MPI tasks x 8 OpenMP threads

Minimization stats:
  Stopping criterion = max iterations
  Energy initial, next-to-last, final = 
     -14975.0906612158  -26376.8936441744  -26377.5738442288
  Force two-norm initial, final = 3663.1466 26.747356
  Force max component initial, final = 118.71164 4.911052
  Final line search alpha, max atom move = 0.0061938015 0.030418081
  Iterations, force evaluations = 1000 1994

MPI task timing breakdown:
Section |  min time  |  avg time  |  max time  |%varavg| %total
---------------------------------------------------------------
Pair    | 18.722     | 18.722     | 18.722     |   0.0 | 64.86
Bond    | 2.7621     | 2.7621     | 2.7621     |   0.0 |  9.57
Kspace  | 5.3367     | 5.3367     | 5.3367     |   0.0 | 18.49
Neigh   | 0.51505    | 0.51505    | 0.51505    |   0.0 |  1.78
Comm    | 0.30604    | 0.30604    | 0.30604    |   0.0 |  1.06
Output  | 0.4356     | 0.4356     | 0.4356     |   0.0 |  1.51
Modify  | 0.35988    | 0.35988    | 0.35988    |   0.0 |  1.25
Other   |            | 0.4278     |            |       |  1.48

Nlocal:          11087 ave       11087 max       11087 min
Histogram: 1 0 0 0 0 0 0 0 0 0
Nghost:          23373 ave       23373 max       23373 min
Histogram: 1 0 0 0 0 0 0 0 0 0
Neighs:    2.83438e+06 ave 2.83438e+06 max 2.83438e+06 min
Histogram: 1 0 0 0 0 0 0 0 0 0

Total # of neighbors = 2834384
Ave neighs/atom = 255.64932
Ave special neighs/atom = 5.852981
Neighbor list builds = 33
Dangerous builds = 0

write_data      system_minimized_final.data
System init for write_data ...
PPPM initialization ...
  using 12-bit tables for long-range coulomb (src/kspace.cpp:342)
  G vector (1/distance) = 0.20709874
  grid = 15 15 15
  stencil order = 5
  estimated absolute RMS force accuracy = 0.034470093
  estimated relative force accuracy = 0.00010380566
  using double precision FFTW3
  3d grid and FFT values/proc = 8000 3375
Generated 6 of 6 mixed pair_coeff terms from geometric mixing rule
Last active /omp style is kspace_style pppm/omp

# --- 5. Equilibration Loop (Set 1 Logic) ---
undump          bbdump
reset_timestep  0
dump            bbdump bbdump custom 10 traj_stage3.lammpstrj id xu yu zu
dump_modify     bbdump sort id format float %.4f append yes

variable        temp equal 300
velocity        all create ${temp} 12345
velocity        all create 300 12345

# NVT (1000 steps)
fix             1 all nvt temp ${temp} ${temp} 100.0
fix             1 all nvt temp 300 ${temp} 100.0
fix             1 all nvt temp 300 300 100.0
run             1000
PPPM initialization ...
  using 12-bit tables for long-range coulomb (src/kspace.cpp:342)
  G vector (1/distance) = 0.20709874
  grid = 15 15 15
  stencil order = 5
  estimated absolute RMS force accuracy = 0.034470093
  estimated relative force accuracy = 0.00010380566
  using double precision FFTW3
  3d grid and FFT values/proc = 8000 3375
Generated 6 of 6 mixed pair_coeff terms from geometric mixing rule
Last active /omp style is kspace_style pppm/omp
WARNING: Inconsistent image flags
For more information see https://docs.lammps.org/err0027 (src/domain.cpp:1052)
Per MPI rank memory allocation (min/avg/max) = 82.97 | 82.97 | 82.97 Mbytes
   Step          Temp          E_pair         E_mol          TotEng         Press     
         0   300           -36110.852      9733.2778     -16463.996      2467.207     
      1000   310.78965     -35098.407      19022.55      -5805.7318      788.30396    
Loop time of 10.6166 on 8 procs for 1000 steps with 11087 atoms

Performance: 8.138 ns/day, 2.949 hours/ns, 94.192 timesteps/s, 1.044 Matom-step/s
495.5% CPU use with 1 MPI tasks x 8 OpenMP threads

MPI task timing breakdown:
Section |  min time  |  avg time  |  max time  |%varavg| %total
---------------------------------------------------------------
Pair    | 5.7284     | 5.7284     | 5.7284     |   0.0 | 53.96
Bond    | 0.8411     | 0.8411     | 0.8411     |   0.0 |  7.92
Kspace  | 2.185      | 2.185      | 2.185      |   0.0 | 20.58
Neigh   | 0.44883    | 0.44883    | 0.44883    |   0.0 |  4.23
Comm    | 0.15714    | 0.15714    | 0.15714    |   0.0 |  1.48
Output  | 0.48113    | 0.48113    | 0.48113    |   0.0 |  4.53
Modify  | 0.71926    | 0.71926    | 0.71926    |   0.0 |  6.77
Other   |            | 0.05577    |            |       |  0.53

Nlocal:          11087 ave       11087 max       11087 min
Histogram: 1 0 0 0 0 0 0 0 0 0
Nghost:          23227 ave       23227 max       23227 min
Histogram: 1 0 0 0 0 0 0 0 0 0
Neighs:    2.83272e+06 ave 2.83272e+06 max 2.83272e+06 min
Histogram: 1 0 0 0 0 0 0 0 0 0

Total # of neighbors = 2832715
Ave neighs/atom = 255.49878
Ave special neighs/atom = 5.852981
Neighbor list builds = 30
Dangerous builds = 0
unfix           1
write_data      after_nvt_real.data
System init for write_data ...
PPPM initialization ...
  using 12-bit tables for long-range coulomb (src/kspace.cpp:342)
  G vector (1/distance) = 0.20709874
  grid = 15 15 15
  stencil order = 5
  estimated absolute RMS force accuracy = 0.034470093
  estimated relative force accuracy = 0.00010380566
  using double precision FFTW3
  3d grid and FFT values/proc = 8000 3375
Generated 6 of 6 mixed pair_coeff terms from geometric mixing rule
Last active /omp style is kspace_style pppm/omp

# NPT (1000 steps)
fix             1 all npt temp ${temp} ${temp} 100.0 iso 1.0 1.0 1000.0
fix             1 all npt temp 300 ${temp} 100.0 iso 1.0 1.0 1000.0
fix             1 all npt temp 300 300 100.0 iso 1.0 1.0 1000.0
run             1000
PPPM initialization ...
  using 12-bit tables for long-range coulomb (src/kspace.cpp:342)
  G vector (1/distance) = 0.20709874
  grid = 15 15 15
  stencil order = 5
  estimated absolute RMS force accuracy = 0.034470093
  estimated relative force accuracy = 0.00010380566
  using double precision FFTW3
  3d grid and FFT values/proc = 8000 3375
Generated 6 of 6 mixed pair_coeff terms from geometric mixing rule
Last active /omp style is kspace_style pppm/omp
WARNING: Inconsistent image flags
For more information see https://docs.lammps.org/err0027 (src/domain.cpp:1052)
Per MPI rank memory allocation (min/avg/max) = 84.9 | 84.9 | 84.9 Mbytes
   Step          Temp          E_pair         E_mol          TotEng         Press          Volume    
      1000   310.78965     -35098.407      19022.55      -5805.7318      788.30396      157904.78    
      2000   300.98422     -35160.325      18528.488     -6685.7344      199.96519      157160.57    
Loop time of 13.0616 on 8 procs for 1000 steps with 11087 atoms

Performance: 6.615 ns/day, 3.628 hours/ns, 76.560 timesteps/s, 848.822 katom-step/s
467.1% CPU use with 1 MPI tasks x 8 OpenMP threads

MPI task timing breakdown:
Section |  min time  |  avg time  |  max time  |%varavg| %total
---------------------------------------------------------------
Pair    | 5.9899     | 5.9899     | 5.9899     |   0.0 | 45.86
Bond    | 1.3472     | 1.3472     | 1.3472     |   0.0 | 10.31
Kspace  | 2.6923     | 2.6923     | 2.6923     |   0.0 | 20.61
Neigh   | 0.56259    | 0.56259    | 0.56259    |   0.0 |  4.31
Comm    | 0.1498     | 0.1498     | 0.1498     |   0.0 |  1.15
Output  | 0.46153    | 0.46153    | 0.46153    |   0.0 |  3.53
Modify  | 1.8064     | 1.8064     | 1.8064     |   0.0 | 13.83
Other   |            | 0.0518     |            |       |  0.40

Nlocal:          11087 ave       11087 max       11087 min
Histogram: 1 0 0 0 0 0 0 0 0 0
Nghost:          23337 ave       23337 max       23337 min
Histogram: 1 0 0 0 0 0 0 0 0 0
Neighs:    2.84314e+06 ave 2.84314e+06 max 2.84314e+06 min
Histogram: 1 0 0 0 0 0 0 0 0 0

Total # of neighbors = 2843139
Ave neighs/atom = 256.43898
Ave special neighs/atom = 5.852981
Neighbor list builds = 36
Dangerous builds = 0
unfix           1

undump          bbdump
write_data      system_equilibrated.data
System init for write_data ...
PPPM initialization ...
  using 12-bit tables for long-range coulomb (src/kspace.cpp:342)
  G vector (1/distance) = 0.20724954
  grid = 15 15 15
  stencil order = 5
  estimated absolute RMS force accuracy = 0.0343364
  estimated relative force accuracy = 0.00010340305
  using double precision FFTW3
  3d grid and FFT values/proc = 8000 3375
Generated 6 of 6 mixed pair_coeff terms from geometric mixing rule
Last active /omp style is kspace_style pppm/omp
print "All Minimization Stages Complete."
All Minimization Stages Complete.
Total wall time: 0:00:53
