LAMMPS (2 Apr 2025)
  using 8 OpenMP thread(s) per MPI task
Loaded 1 plugins from <LAMMPS install>/plugins
package omp 8
using multi-threaded neighbor list subroutines
# LAMMPS Stage 2: epsilon ramp with the backbone at full depth (CHARMM, protocol "hard_backbone")
#
# CHARMM LJ without 1-4 terms (lj/cut/coul/long, arithmetic mixing, NBFIX);
# pairs with a light atom ramp from 0.001 to 1 of their depth, backbone
# pairs (types 1 2 4) are at full depth from the first
# step. No soft pre-minimisation: the historic CHARMM ramp opens with one.

units           real
atom_style      full
boundary        p p p
bond_style      harmonic
angle_style     charmm
dihedral_style  charmm
improper_style  harmonic
special_bonds   charmm
pair_style      lj/cut/coul/long 12.0
pair_modify     mix arithmetic
kspace_style    pppm 1.0e-4

read_data       system_after_soft.data
Reading data file ...
  orthogonal box = (0 0 0) to (33.833724 33.833724 33.833724)
  1 by 1 by 1 MPI processor grid
  reading atoms ...
  3648 atoms
  reading velocities ...
  3648 velocities
  scanning bonds ...
  4 = max bonds/atom
  scanning angles ...
  6 = max angles/atom
  scanning dihedrals ...
  48 = max dihedrals/atom
  orthogonal box = (0 0 0) to (33.833724 33.833724 33.833724)
  1 by 1 by 1 MPI processor grid
  reading bonds ...
  3712 bonds
  reading angles ...
  7040 angles
  reading dihedrals ...
  12032 dihedrals
Finding 1-2 1-3 1-4 neighbors ...
  special bond factors lj:    0        0        0       
  special bond factors coul:  0        0        0       
     4 = max # of 1-2 neighbors
    12 = max # of 1-3 neighbors
    16 = max # of 1-4 neighbors
    20 = max # of special neighbors
  special bonds CPU = 0.002 seconds
  read_data CPU = 0.191 seconds
include         ../02_Chemistry/system.in.settings.soft
# CHARMM force-field coefficients (topon). Soft-stage variant: no pair coeffs, 1-4 weights 0.

# bond_coeff  K  r0  (harmonic, E = K (r - r0)^2)
bond_coeff 1 222.5 1.538 # CC30A-CC32A
bond_coeff 2 222.5 1.53 # CC32A-CC32A
bond_coeff 3 309 1.111 # CC32A-HCA2A
bond_coeff 4 360 1.415 # CC32A-OC30A

# angle_coeff  K  theta0  K_ub  r_ub  (charmm)
angle_coeff 1 26.5 110.1 22.53 2.179 # CC30A-CC32A-HCA2A
angle_coeff 2 45 111.5 0 0 # CC30A-CC32A-OC30A
angle_coeff 3 58.35 113.5 11.16 2.561 # CC32A-CC30A-CC32A
angle_coeff 4 26.5 110.1 22.53 2.179 # CC32A-CC32A-HCA2A
angle_coeff 5 45 111.5 0 0 # CC32A-CC32A-OC30A
angle_coeff 6 95 109.7 0 0 # CC32A-OC30A-CC32A
angle_coeff 7 35.5 109 5.4 1.802 # HCA2A-CC32A-HCA2A
angle_coeff 8 60 109.5 0 0 # HCA2A-CC32A-OC30A

# dihedral_coeff  K  n  d  w  (charmm; w = 1-4 weight)
dihedral_coeff 1 0.57 1 0 0 # CC30A-CC32A-OC30A-CC32A
dihedral_coeff 2 0.29 2 0 0 # CC30A-CC32A-OC30A-CC32A
dihedral_coeff 3 0.43 3 0 0 # CC30A-CC32A-OC30A-CC32A
dihedral_coeff 4 0.2 3 0 0 # CC32A-CC30A-CC32A-HCA2A
dihedral_coeff 5 0.16 1 180 0 # CC32A-CC30A-CC32A-OC30A
dihedral_coeff 6 0.39 2 0 0 # CC32A-CC30A-CC32A-OC30A
dihedral_coeff 7 0.57 1 0 0 # CC32A-CC32A-OC30A-CC32A
dihedral_coeff 8 0.29 2 0 0 # CC32A-CC32A-OC30A-CC32A
dihedral_coeff 9 0.43 3 0 0 # CC32A-CC32A-OC30A-CC32A
dihedral_coeff 10 0.284 3 0 0 # CC32A-OC30A-CC32A-HCA2A
dihedral_coeff 11 0.19 3 0 0 # HCA2A-CC32A-CC32A-HCA2A
dihedral_coeff 12 0.19 3 0 0 # HCA2A-CC32A-CC32A-OC30A
dihedral_coeff 13 0.59 1 180 0 # OC30A-CC32A-CC32A-OC30A
dihedral_coeff 14 1.16 2 0 0 # OC30A-CC32A-CC32A-OC30A

# improper_coeff  K  psi0  (harmonic)
include         ../02_Chemistry/system.in.settings.lj
# CHARMM LJ for lj/cut* pair styles (epsilon ramp stage); use with
# pair_modify mix arithmetic. No 1-4 parameters here.

pair_coeff 1 1 0.032000 3.563595 # CC30A
pair_coeff 2 2 0.056000 3.581413 # CC32A
pair_coeff 3 3 0.035000 2.387609 # HCA2A
pair_coeff 4 4 0.100000 2.939966 # OC30A

neigh_modify    one 10000
comm_modify     mode single cutoff 12.0

group           bbdump type 1 2 4
1600 atoms in group bbdump
dump            bbdump bbdump custom 10 traj_stage2.lammpstrj id xu yu zu
dump_modify     bbdump sort id format float %.4f

variable        scale equal ramp(0.001,1.0)
fix             ramp all adapt 1 pair lj/cut/coul/long epsilon 1*3 3 v_scale pair lj/cut/coul/long epsilon 3 4*4 v_scale scale yes reset no
fix             lang all langevin 300.0 300.0 100.0 7811
fix             cap all nve/limit 0.1
timestep        1.0
thermo          1000
# RUNTIME: 2500 steps
run             2500
PPPM initialization ...
  using 12-bit tables for long-range coulomb (src/kspace.cpp:342)
  G vector (1/distance) = 0.17434979
  grid = 8 8 8
  stencil order = 5
  estimated absolute RMS force accuracy = 0.021737461
  estimated relative force accuracy = 6.5461719e-05
  using double precision FFTW3
  3d grid and FFT values/proc = 2197 512
Generated 6 of 6 mixed pair_coeff terms from arithmetic mixing rule
Last active /omp style is kspace_style pppm/omp
Neighbor list info ...
  update: every = 1 steps, delay = 0 steps, check = yes
  max neighbors/atom: 10000, page size: 100000
  master list distance cutoff = 14
  ghost atom cutoff = 14
  binsize = 7, bins = 5 5 5
  1 neighbor lists, perpetual/occasional/extra = 1 0 0
  (1) pair lj/cut/coul/long/omp, perpetual
      attributes: half, newton on, omp
      pair build: half/bin/newton/omp
      stencil: half/bin/3d
      bin: standard
WARNING: Communication cutoff adjusted to 14 (src/comm.cpp:753)
WARNING: Inconsistent image flags
For more information see https://docs.lammps.org/err0027 (src/domain.cpp:1052)
Per MPI rank memory allocation (min/avg/max) = 65.84 | 65.84 | 65.84 Mbytes
   Step          Temp          E_pair         E_mol          TotEng         Press     
         0   271.86799      493.01183      5132.4092      8580.9019      4487.2889    
      1000   303.32087     -647.67599      5806.9079      8456.6374      1011.604     
      2000   301.3545      -1041.7238      5672.5764      7906.8817      3227.987     
      2500   298.44841     -1187.1516      5708.5867      7765.872       3155.9851    
Loop time of 29.3474 on 8 procs for 2500 steps with 3648 atoms

Performance: 7.360 ns/day, 3.261 hours/ns, 85.186 timesteps/s, 310.760 katom-step/s
542.1% CPU use with 1 MPI tasks x 8 OpenMP threads

MPI task timing breakdown:
Section |  min time  |  avg time  |  max time  |%varavg| %total
---------------------------------------------------------------
Pair    | 19.046     | 19.046     | 19.046     |   0.0 | 64.90
Bond    | 3.1002     | 3.1002     | 3.1002     |   0.0 | 10.56
Kspace  | 4.0168     | 4.0168     | 4.0168     |   0.0 | 13.69
Neigh   | 0.73113    | 0.73113    | 0.73113    |   0.0 |  2.49
Comm    | 0.316      | 0.316      | 0.316      |   0.0 |  1.08
Output  | 0.89825    | 0.89825    | 0.89825    |   0.0 |  3.06
Modify  | 1.1855     | 1.1855     | 1.1855     |   0.0 |  4.04
Other   |            | 0.05389    |            |       |  0.18

Nlocal:           3648 ave        3648 max        3648 min
Histogram: 1 0 0 0 0 0 0 0 0 0
Nghost:          18568 ave       18568 max       18568 min
Histogram: 1 0 0 0 0 0 0 0 0 0
Neighs:    1.97587e+06 ave 1.97587e+06 max 1.97587e+06 min
Histogram: 1 0 0 0 0 0 0 0 0 0

Total # of neighbors = 1975866
Ave neighs/atom = 541.62993
Ave special neighs/atom = 10.736842
Neighbor list builds = 57
Dangerous builds = 0
unfix           cap
unfix           lang
unfix           ramp
undump          bbdump
write_data      system_ramped.data nocoeff
System init for write_data ...
PPPM initialization ...
  using 12-bit tables for long-range coulomb (src/kspace.cpp:342)
  G vector (1/distance) = 0.17434979
  grid = 8 8 8
  stencil order = 5
  estimated absolute RMS force accuracy = 0.021737461
  estimated relative force accuracy = 6.5461719e-05
  using double precision FFTW3
  3d grid and FFT values/proc = 2197 512
Generated 6 of 6 mixed pair_coeff terms from arithmetic mixing rule
Last active /omp style is kspace_style pppm/omp
Total wall time: 0:00:29
