LAMMPS (2 Apr 2025)
  using 8 OpenMP thread(s) per MPI task
Loaded 1 plugins from <LAMMPS install>/plugins
package omp 8
using multi-threaded neighbor list subroutines
# LAMMPS Stage 1: hard-backbone push-off (ATOMISTIC, CHARMM, protocol "hard_backbone")
#
# Backbone-backbone pairs (atom types 1 2 4) keep a soft
# core of 60.0 kcal/mol out to 3.0 A from the first
# step; every pair with a light atom ramps 0 -> 30.0 kcal/mol at
# 1.0 A. The .soft settings carry the bonded terms with 1-4
# weights 0. Capped displacement under a Langevin thermostat, no minimiser.

units           real
atom_style      full
boundary        p p p
bond_style      harmonic
angle_style     charmm
dihedral_style  charmm
improper_style  harmonic
special_bonds   charmm
pair_style      soft 3.0

read_data       ../03_Conformation/system_relaxed.data
Reading data file ...
  orthogonal box = (0 0 0) to (33.833724 33.833724 33.833724)
  1 by 1 by 1 MPI processor grid
  reading atoms ...
  3648 atoms
  scanning bonds ...
  4 = max bonds/atom
  scanning angles ...
  6 = max angles/atom
  scanning dihedrals ...
  48 = max dihedrals/atom
  orthogonal box = (0 0 0) to (33.833724 33.833724 33.833724)
  1 by 1 by 1 MPI processor grid
  reading bonds ...
  3712 bonds
  reading angles ...
  7040 angles
  reading dihedrals ...
  12032 dihedrals
Finding 1-2 1-3 1-4 neighbors ...
  special bond factors lj:    0        0        0       
  special bond factors coul:  0        0        0       
     4 = max # of 1-2 neighbors
    12 = max # of 1-3 neighbors
    16 = max # of 1-4 neighbors
    20 = max # of special neighbors
  special bonds CPU = 0.002 seconds
  read_data CPU = 0.152 seconds
include         ../02_Chemistry/system.in.settings.soft
# CHARMM force-field coefficients (topon). Soft-stage variant: no pair coeffs, 1-4 weights 0.

# bond_coeff  K  r0  (harmonic, E = K (r - r0)^2)
bond_coeff 1 222.5 1.538 # CC30A-CC32A
bond_coeff 2 222.5 1.53 # CC32A-CC32A
bond_coeff 3 309 1.111 # CC32A-HCA2A
bond_coeff 4 360 1.415 # CC32A-OC30A

# angle_coeff  K  theta0  K_ub  r_ub  (charmm)
angle_coeff 1 26.5 110.1 22.53 2.179 # CC30A-CC32A-HCA2A
angle_coeff 2 45 111.5 0 0 # CC30A-CC32A-OC30A
angle_coeff 3 58.35 113.5 11.16 2.561 # CC32A-CC30A-CC32A
angle_coeff 4 26.5 110.1 22.53 2.179 # CC32A-CC32A-HCA2A
angle_coeff 5 45 111.5 0 0 # CC32A-CC32A-OC30A
angle_coeff 6 95 109.7 0 0 # CC32A-OC30A-CC32A
angle_coeff 7 35.5 109 5.4 1.802 # HCA2A-CC32A-HCA2A
angle_coeff 8 60 109.5 0 0 # HCA2A-CC32A-OC30A

# dihedral_coeff  K  n  d  w  (charmm; w = 1-4 weight)
dihedral_coeff 1 0.57 1 0 0 # CC30A-CC32A-OC30A-CC32A
dihedral_coeff 2 0.29 2 0 0 # CC30A-CC32A-OC30A-CC32A
dihedral_coeff 3 0.43 3 0 0 # CC30A-CC32A-OC30A-CC32A
dihedral_coeff 4 0.2 3 0 0 # CC32A-CC30A-CC32A-HCA2A
dihedral_coeff 5 0.16 1 180 0 # CC32A-CC30A-CC32A-OC30A
dihedral_coeff 6 0.39 2 0 0 # CC32A-CC30A-CC32A-OC30A
dihedral_coeff 7 0.57 1 0 0 # CC32A-CC32A-OC30A-CC32A
dihedral_coeff 8 0.29 2 0 0 # CC32A-CC32A-OC30A-CC32A
dihedral_coeff 9 0.43 3 0 0 # CC32A-CC32A-OC30A-CC32A
dihedral_coeff 10 0.284 3 0 0 # CC32A-OC30A-CC32A-HCA2A
dihedral_coeff 11 0.19 3 0 0 # HCA2A-CC32A-CC32A-HCA2A
dihedral_coeff 12 0.19 3 0 0 # HCA2A-CC32A-CC32A-OC30A
dihedral_coeff 13 0.59 1 180 0 # OC30A-CC32A-CC32A-OC30A
dihedral_coeff 14 1.16 2 0 0 # OC30A-CC32A-CC32A-OC30A

# improper_coeff  K  psi0  (harmonic)
pair_coeff      * * 0.0 1.0
pair_coeff      1 1 60.0 3.0
pair_coeff      1 2 60.0 3.0
pair_coeff      1 4 60.0 3.0
pair_coeff      2 2 60.0 3.0
pair_coeff      2 4 60.0 3.0
pair_coeff      4 4 60.0 3.0
include         ../02_Chemistry/system.groups
# LAMMPS group definitions
group nodes id 1 2 3 4 5 6 7 8 9 10 11 12 13 14 15 16 17 18 19 20 21 22 23 24 25 26 27 28 29 30 31 32 33 34 35 36 37 38 39 40 41 42 43 44 45 46 47 48 49 50 51 52 53 54 55 56 57 58 59 60 61 62 63 64
64 atoms in group nodes
group beads subtract all nodes
3584 atoms in group beads

neighbor        2.0 bin
neigh_modify    every 1 delay 0 check yes
comm_modify     mode single cutoff 12.0

group           bbdump type 1 2 4
1600 atoms in group bbdump
dump            bbdump bbdump custom 10 traj_stage1.lammpstrj id xu yu zu
dump_modify     bbdump sort id format float %.4f

variable        prefactor equal ramp(0,30.0)
fix             light all adapt 1 pair soft a 1*3 3 v_prefactor pair soft a 3 4*4 v_prefactor reset no
velocity        all create 300.0 4928459 dist gaussian
fix             lang all langevin 300.0 300.0 100.0 48279
fix             cap all nve/limit 0.05
timestep        1.0
thermo          1000
run             5000
Generated 0 of 6 mixed pair_coeff terms from geometric mixing rule
Last active /omp style is improper_style harmonic/omp
Neighbor list info ...
  update: every = 1 steps, delay = 0 steps, check = yes
  max neighbors/atom: 2000, page size: 100000
  master list distance cutoff = 5
  ghost atom cutoff = 12
  binsize = 2.5, bins = 14 14 14
  1 neighbor lists, perpetual/occasional/extra = 1 0 0
  (1) pair soft/omp, perpetual
      attributes: half, newton on, omp
      pair build: half/bin/newton/omp
      stencil: half/bin/3d
      bin: standard
WARNING: Inconsistent image flags
For more information see https://docs.lammps.org/err0027 (src/domain.cpp:1052)
Per MPI rank memory allocation (min/avg/max) = 58.62 | 58.62 | 58.62 Mbytes
   Step          Temp          E_pair         E_mol          TotEng         Press     
         0   300            35048.029      7764.0548      46073.388      111280.05    
      1000   278.06255      136.43943      5595.9522      8755.2136      2360.9185    
      2000   278.11076      109.76914      5448.8329      8581.9481      498.14388    
      3000   268.16723      102.97642      5348.6421      8366.8683      1559.8622    
      4000   276.98935      81.671908      5306.4954      8399.3225      1686.3983    
      5000   271.86799      67.597221      5132.4092      8155.4873      934.11799    
Loop time of 12.1362 on 8 procs for 5000 steps with 3648 atoms

Performance: 35.596 ns/day, 0.674 hours/ns, 411.991 timesteps/s, 1.503 Matom-step/s
173.8% CPU use with 1 MPI tasks x 8 OpenMP threads

MPI task timing breakdown:
Section |  min time  |  avg time  |  max time  |%varavg| %total
---------------------------------------------------------------
Pair    | 1.3418     | 1.3418     | 1.3418     |   0.0 | 11.06
Bond    | 6.4206     | 6.4206     | 6.4206     |   0.0 | 52.90
Neigh   | 0.27878    | 0.27878    | 0.27878    |   0.0 |  2.30
Comm    | 0.46658    | 0.46658    | 0.46658    |   0.0 |  3.84
Output  | 1.4649     | 1.4649     | 1.4649     |   0.0 | 12.07
Modify  | 2.0889     | 2.0889     | 2.0889     |   0.0 | 17.21
Other   |            | 0.07455    |            |       |  0.61

Nlocal:           3648 ave        3648 max        3648 min
Histogram: 1 0 0 0 0 0 0 0 0 0
Nghost:          14502 ave       14502 max       14502 min
Histogram: 1 0 0 0 0 0 0 0 0 0
Neighs:          20072 ave       20072 max       20072 min
Histogram: 1 0 0 0 0 0 0 0 0 0

Total # of neighbors = 20072
Ave neighs/atom = 5.502193
Ave special neighs/atom = 10.736842
Neighbor list builds = 113
Dangerous builds = 0
unfix           cap
unfix           lang
unfix           light
undump          bbdump
write_data      system_after_soft.data nocoeff
System init for write_data ...
Generated 0 of 6 mixed pair_coeff terms from geometric mixing rule
Last active /omp style is improper_style harmonic/omp
write_restart   1.restart
System init for write_restart ...
Generated 0 of 6 mixed pair_coeff terms from geometric mixing rule
Last active /omp style is improper_style harmonic/omp
Total wall time: 0:00:12
