LAMMPS (2 Apr 2025)
  using 8 OpenMP thread(s) per MPI task
Loaded 1 plugins from <LAMMPS install>/plugins
package omp 8
using multi-threaded neighbor list subroutines
# LAMMPS Stage 2: epsilon ramp with the backbone at full depth (protocol "hard_backbone")
#
# Pairs with a light atom ramp from 0.001 to 1 of their Lennard-Jones depth;
# backbone-backbone pairs (types 1 3) are at full depth
# from the first step. Capped under a Langevin thermostat: the historic ramp
# runs nve/limit alone and ended a small test network at 964 K.

units           real
atom_style      full
boundary        p p p
bond_style      harmonic
angle_style     harmonic
dihedral_style  harmonic
improper_style  umbrella
pair_style      soft 3.0

read_data       system_after_soft.data
Reading data file ...
  orthogonal box = (0 0 0) to (67.0595 67.0595 67.0595)
  1 by 1 by 1 MPI processor grid
  reading atoms ...
  21587 atoms
  reading velocities ...
  21587 velocities
  scanning bonds ...
  4 = max bonds/atom
  scanning angles ...
  6 = max angles/atom
  scanning dihedrals ...
  30 = max dihedrals/atom
  orthogonal box = (0 0 0) to (67.0595 67.0595 67.0595)
  1 by 1 by 1 MPI processor grid
  reading bonds ...
  21676 bonds
  reading angles ...
  41220 angles
  reading dihedrals ...
  52236 dihedrals
Finding 1-2 1-3 1-4 neighbors ...
  special bond factors lj:    0        0        0       
  special bond factors coul:  0        0        0       
     4 = max # of 1-2 neighbors
    10 = max # of 1-3 neighbors
    22 = max # of 1-4 neighbors
    24 = max # of special neighbors
  special bonds CPU = 0.010 seconds
  read_data CPU = 0.582 seconds

neigh_modify    one 10000
comm_modify     mode single cutoff 12.0

group           bbdump type 1 3
4531 atoms in group bbdump
dump            bbdump bbdump custom 10 traj_stage2.lammpstrj id xu yu zu
dump_modify     bbdump sort id format float %.4f

pair_style      lj/cut/coul/long 10.0 10.0
kspace_style    pppm 1.0e-4
include         ../02_Chemistry/system.in.settings
# Forcefield Settings (Auto-Generated)

# Pair Coeffs
pair_coeff 1 1 0.3100 3.8041 # Si3
pair_coeff 2 2 0.0951 3.4730 # C_3
pair_coeff 3 3 0.0957 3.0332 # O_3
pair_coeff 4 4 0.0152 2.8464 # H_
pair_modify mix geometric tail yes

# Bond Coeffs
bond_coeff 1 350.0000 1.6970 # C_3-Si3
bond_coeff 2 350.0000 1.5870 # O_3-Si3
bond_coeff 3 350.0000 1.0900 # C_3-H_

# Angle Coeffs
angle_coeff 1 50.0000 109.4710 # O_3-Si3-O_3
angle_coeff 2 50.0000 109.4710 # C_3-Si3-O_3
angle_coeff 3 50.0000 109.4710 # C_3-Si3-C_3
angle_coeff 4 50.0000 109.4710 # H_-C_3-Si3
angle_coeff 5 50.0000 109.4710 # H_-C_3-H_
angle_coeff 6 50.0000 104.5100 # Si3-O_3-Si3

# Dihedral Coeffs
dihedral_coeff 1 0.111111 1 3 # C_3-Si3-C_3-H_
dihedral_coeff 2 0.111111 1 3 # H_-C_3-Si3-O_3
dihedral_coeff 3 0.333333 1 3 # C_3-Si3-O_3-Si3
dihedral_coeff 4 0.333333 1 3 # O_3-Si3-O_3-Si3

special_bonds   lj/coul 0.0 0.0 1.0
Finding 1-2 1-3 1-4 neighbors ...
  special bond factors lj:    0        0        1       
  special bond factors coul:  0        0        1       
     4 = max # of 1-2 neighbors
    10 = max # of 1-3 neighbors
    24 = max # of special neighbors
  special bonds CPU = 0.005 seconds

variable        scale equal ramp(0.001,1.0)
fix             ramp all adapt 1 pair lj/cut/coul/long epsilon 1*2 2 v_scale pair lj/cut/coul/long epsilon 2 3*4 v_scale pair lj/cut/coul/long epsilon 1*4 4 v_scale scale yes reset no
fix             lang all langevin 300.0 300.0 100.0 7811
fix             cap all nve/limit 0.1
timestep        1.0
thermo          1000
# RUNTIME: 2500 steps
run             2500
PPPM initialization ...
  using 12-bit tables for long-range coulomb (src/kspace.cpp:342)
  G vector (1/distance) = 0.20390105
  grid = 18 18 18
  stencil order = 5
  estimated absolute RMS force accuracy = 0.037070803
  estimated relative force accuracy = 0.00011163762
  using double precision FFTW3
  3d grid and FFT values/proc = 12167 5832
Generated 6 of 6 mixed pair_coeff terms from geometric mixing rule
Last active /omp style is kspace_style pppm/omp
Neighbor list info ...
  update: every = 1 steps, delay = 0 steps, check = yes
  max neighbors/atom: 10000, page size: 100000
  master list distance cutoff = 12
  ghost atom cutoff = 12
  binsize = 6, bins = 12 12 12
  1 neighbor lists, perpetual/occasional/extra = 1 0 0
  (1) pair lj/cut/coul/long/omp, perpetual
      attributes: half, newton on, omp
      pair build: half/bin/newton/omp
      stencil: half/bin/3d
      bin: standard
WARNING: Inconsistent image flags
For more information see https://docs.lammps.org/err0027 (src/domain.cpp:1052)
Per MPI rank memory allocation (min/avg/max) = 119 | 119 | 119 Mbytes
   Step          Temp          E_pair         E_mol          TotEng         Press     
         0   273.65825      1333149.8      19918.446      1370676.4      1266309.8    
      1000   304.18074     -54878.556      36034.874      728.45227      3391.868     
      2000   302.57482     -58583.713      37555.172     -1559.7379      2676.7204    
      2500   300.20186     -60186.629      38350.914     -2519.5963      2907.8414    
Loop time of 79.5904 on 8 procs for 2500 steps with 21587 atoms

Performance: 2.714 ns/day, 8.843 hours/ns, 31.411 timesteps/s, 678.065 katom-step/s
535.8% CPU use with 1 MPI tasks x 8 OpenMP threads

MPI task timing breakdown:
Section |  min time  |  avg time  |  max time  |%varavg| %total
---------------------------------------------------------------
Pair    | 49.559     | 49.559     | 49.559     |   0.0 | 62.27
Bond    | 5.1214     | 5.1214     | 5.1214     |   0.0 |  6.43
Kspace  | 11.928     | 11.928     | 11.928     |   0.0 | 14.99
Neigh   | 3.2052     | 3.2052     | 3.2052     |   0.0 |  4.03
Comm    | 0.69453    | 0.69453    | 0.69453    |   0.0 |  0.87
Output  | 2.3439     | 2.3439     | 2.3439     |   0.0 |  2.94
Modify  | 6.4826     | 6.4826     | 6.4826     |   0.0 |  8.14
Other   |            | 0.2565     |            |       |  0.32

Nlocal:          21587 ave       21587 max       21587 min
Histogram: 1 0 0 0 0 0 0 0 0 0
Nghost:          31547 ave       31547 max       31547 min
Histogram: 1 0 0 0 0 0 0 0 0 0
Neighs:    5.65854e+06 ave 5.65854e+06 max 5.65854e+06 min
Histogram: 1 0 0 0 0 0 0 0 0 0

Total # of neighbors = 5658537
Ave neighs/atom = 262.12707
Ave special neighs/atom = 5.8272108
Neighbor list builds = 106
Dangerous builds = 0
unfix           cap
unfix           lang
unfix           ramp
undump          bbdump
write_data      system_ramped.data
System init for write_data ...
PPPM initialization ...
  using 12-bit tables for long-range coulomb (src/kspace.cpp:342)
  G vector (1/distance) = 0.20390105
  grid = 18 18 18
  stencil order = 5
  estimated absolute RMS force accuracy = 0.037070803
  estimated relative force accuracy = 0.00011163762
  using double precision FFTW3
  3d grid and FFT values/proc = 12167 5832
Generated 6 of 6 mixed pair_coeff terms from geometric mixing rule
Last active /omp style is kspace_style pppm/omp
Total wall time: 0:01:20
